Welcome to the CBC MILP Solver 
Version: 2.10.10 
Build Date: Apr 19 2023 

command line - cbc /tmp/2c744add35574109a9b225ee197be5fa-pulp.mps max sec 15 timeMode elapsed branch printingOptions all solution /tmp/2c744add35574109a9b225ee197be5fa-pulp.sol (default strategy 1)
At line 2 NAME          MODEL
At line 3 ROWS
At line 32960 COLUMNS
At line 119194 RHS
At line 152150 BOUNDS
At line 160751 ENDATA
Problem MODEL has 32955 rows, 8600 columns and 85395 elements
Coin0008I MODEL read with 0 errors
seconds was changed from 1e+100 to 15
Option for timeMode changed from cpu to elapsed
Presolve 5144 (-27811) rows, 2550 (-6050) columns and 14659 (-70736) elements
Perturbing problem by 0.001% of 1 - largest nonzero change 0.00099044653 ( 0.19808931%) - largest zero change 0.00099003601
0  Obj -0 Primal inf 121.20585 (77) Dual inf 44.449621 (75)
177  Obj 11.95466 Primal inf 332.01277 (266)
354  Obj 11.945742 Primal inf 251.4519 (299)
531  Obj 11.938761 Primal inf 222.49557 (261)
708  Obj 11.93406 Primal inf 220.43074 (253)
885  Obj 11.926805 Primal inf 206.7648 (177)
1062  Obj 11.924566 Primal inf 735.74905 (244)
1239  Obj 11.919947 Primal inf 144.02241 (152)
1416  Obj 11.918325 Primal inf 173.93329 (169)
1508  Obj 11.917617
Optimal - objective value 12
After Postsolve, objective 12, infeasibilities - dual 0 (0), primal 0 (0)
Optimal objective 12 - 1508 iterations time 0.112, Presolve 0.07
Option for printingOptions changed from normal to all
Total time (CPU seconds):       0.39   (Wallclock seconds):       0.17

Welcome to the CBC MILP Solver 
Version: 2.10.10 
Build Date: Apr 19 2023 

command line - cbc /tmp/ac3f2cbdb74347869fbab47fe5105693-pulp.mps max sec 15 timeMode elapsed branch printingOptions all solution /tmp/ac3f2cbdb74347869fbab47fe5105693-pulp.sol (default strategy 1)
At line 2 NAME          MODEL
At line 3 ROWS
At line 32960 COLUMNS
At line 136394 RHS
At line 169350 BOUNDS
At line 177951 ENDATA
Problem MODEL has 32955 rows, 8600 columns and 85395 elements
Coin0008I MODEL read with 0 errors
seconds was changed from 1e+100 to 15
Option for timeMode changed from cpu to elapsed
Continuous objective value is 12 - 0.10 seconds
Cgl0002I 3701 variables fixed
Cgl0003I 466 fixed, 0 tightened bounds, 3124 strengthened rows, 816 substitutions
Cgl0003I 0 fixed, 0 tightened bounds, 1321 strengthened rows, 32 substitutions
Cgl0003I 0 fixed, 0 tightened bounds, 1997 strengthened rows, 0 substitutions
Cgl0003I 6 fixed, 0 tightened bounds, 1412 strengthened rows, 42 substitutions
Cgl0003I 0 fixed, 0 tightened bounds, 671 strengthened rows, 0 substitutions
Cgl0003I 0 fixed, 0 tightened bounds, 944 strengthened rows, 0 substitutions
Cgl0003I 0 fixed, 0 tightened bounds, 645 strengthened rows, 0 substitutions
Cgl0003I 0 fixed, 0 tightened bounds, 303 strengthened rows, 0 substitutions
Cgl0003I 0 fixed, 0 tightened bounds, 91 strengthened rows, 0 substitutions
Cgl0003I 0 fixed, 0 tightened bounds, 9 strengthened rows, 0 substitutions
Cgl0003I 0 fixed, 0 tightened bounds, 9 strengthened rows, 0 substitutions
Cgl0004I processed model has 2349 rows, 2017 columns (2017 integer (1974 of which binary)) and 11088 elements
Cbc0038I Initial state - 27 integers unsatisfied sum - 9
Cbc0038I Pass   1: suminf.    7.00000 (21) obj. 12 iterations 343
Cbc0038I Pass   2: suminf.    7.00000 (21) obj. 12 iterations 88
Cbc0038I Pass   3: suminf.    9.00000 (27) obj. 12 iterations 395
Cbc0038I Pass   4: suminf.    7.00000 (21) obj. 12 iterations 328
Cbc0038I Pass   5: suminf.    4.66667 (14) obj. 12 iterations 19
Cbc0038I Pass   6: suminf.    4.66667 (14) obj. 12 iterations 107
Cbc0038I Pass   7: suminf.    7.00000 (21) obj. 12 iterations 161
Cbc0038I Pass   8: suminf.    4.66667 (14) obj. 12 iterations 397
Cbc0038I Pass   9: suminf.    4.66667 (14) obj. 12 iterations 312
Cbc0038I Pass  10: suminf.    4.66667 (14) obj. 12 iterations 185
Cbc0038I Pass  11: suminf.    4.66667 (14) obj. 12 iterations 329
Cbc0038I Pass  12: suminf.    4.66667 (14) obj. 12 iterations 343
Cbc0038I Pass  13: suminf.    4.66667 (14) obj. 12 iterations 287
Cbc0038I Pass  14: suminf.    4.66667 (14) obj. 12 iterations 139
Cbc0038I Pass  15: suminf.    4.66667 (14) obj. 12 iterations 311
Cbc0038I Pass  16: suminf.    4.66667 (14) obj. 12 iterations 289
Cbc0038I Pass  17: suminf.    4.66667 (14) obj. 12 iterations 165
Cbc0038I Pass  18: suminf.    0.00000 (0) obj. 12 iterations 324
Cbc0038I Solution found of 12
Cbc0038I Cleaned solution of 12
Cbc0038I Before mini branch and bound, 1957 integers at bound fixed and 0 continuous
Cbc0038I Mini branch and bound did not improve solution (0.70 seconds)
Cbc0038I After 0.70 seconds - Feasibility pump exiting with objective of 12 - took 0.30 seconds
Cbc0012I Integer solution of 12 found by feasibility pump after 0 iterations and 0 nodes (0.70 seconds)
Cbc0001I Search completed - best objective 11.9999999999998, took 0 iterations and 0 nodes (0.71 seconds)
Cbc0035I Maximum depth 0, 0 variables fixed on reduced cost
Cuts at root node changed objective from 12 to 12
Probing was tried 0 times and created 0 cuts of which 0 were active after adding rounds of cuts (0.000 seconds)
Gomory was tried 0 times and created 0 cuts of which 0 were active after adding rounds of cuts (0.000 seconds)
Knapsack was tried 0 times and created 0 cuts of which 0 were active after adding rounds of cuts (0.000 seconds)
Clique was tried 0 times and created 0 cuts of which 0 were active after adding rounds of cuts (0.000 seconds)
MixedIntegerRounding2 was tried 0 times and created 0 cuts of which 0 were active after adding rounds of cuts (0.000 seconds)
FlowCover was tried 0 times and created 0 cuts of which 0 were active after adding rounds of cuts (0.000 seconds)
TwoMirCuts was tried 0 times and created 0 cuts of which 0 were active after adding rounds of cuts (0.000 seconds)
ZeroHalf was tried 0 times and created 0 cuts of which 0 were active after adding rounds of cuts (0.000 seconds)

Result - Optimal solution found

Objective value:                12.00000000
Enumerated nodes:               0
Total iterations:               0
Time (CPU seconds):             0.76
Time (Wallclock seconds):       0.75

Option for printingOptions changed from normal to all
Total time (CPU seconds):       1.06   (Wallclock seconds):       0.86

